750
[75,77,80,84,87,88,91,93,94,96,98,99,101,102,106,107,108,112,113,115,119,120,121,122,123,124,125,129,133,136,140,141,142,145,146,147,148,149,151,153,154,155,156,161,163,164,165,166,167,169,170,171,173,175,176,177,179,182,183,184,185,186,188,189,190,193,195,197,198,200,202,203,204,209,210,211,212,213,215,216,223,224,226,227,229,231,232,233,235,236,238,239,240,241,248,250,251,252,256,257,258,259,262,265,266,270,271,273,274,275,277,280,281,282,284,285,286,290,292,293,294,297,299,301,304,305,307,308,309,311,313,315,316,318,322,323,326,328,329,330,333,336,337,338,342,343,346,347,348,349,350,352,354,356,357,359,360,361,362,363,366,367,368,369,372,374,375,376,377,383,384,385,386,387,388,389,390,391,392,393,397,399,400,401,403,405,408,409,410,412,413,414,415,418,420,424,426,427,428,429,430,432,433,435,436,439,442,444,445,447,448,449,450,451,452,453,455,456,457,458,459,460,461,464,465,467,468,469,471,472,473,475,476,477,478,479,480,481,483,484,485,486,488,489,490,491,492,494,496,497,498,500,501,504,506,507,508,509,511,514,515,516,517,518,519,520,521,523,525]
[1,2,1,1,2,1,1,3,1,1,2,1,1,1,1,2,1,4,1,1,3,1,2,1,3,1,1,1,2,1,2,1,1,2,1,2,2,2,1,2,1,2,1,3,2,1,2,1,2,3,1,1,2,1,1,1,1,2,2,1,1,2,1,1,1,1,1,1,2,2,1,2,2,1,1,1,1,1,1,1,1,1,1,1,1,2,1,1,1,1,1,1,2,1,1,2,1,3,1,1,1,2,2,3,1,1,1,1,1,1,1,1,2,1,1,4,1,1,1,1,2,3,1,2,1,1,1,1,3,1,1,2,1,1,1,1,1,1,1,1,2,1,1,2,1,1,1,1,1,1,1,1,1,2,3,1,1,1,1,1,2,2,1,1,1,2,1,2,1,2,2,4,1,2,2,1,1,1,1,3,2,2,1,2,2,1,2,2,1,2,1,2,2,1,1,1,1,5,3,1,2,4,3,1,2,1,2,1,1,1,1,1,1,1,1,1,2,1,1,1,3,3,3,1,2,1,2,1,2,1,1,1,2,2,1,1,1,1,1,1,2,1,1,2,1,3,1,1,1,1,2,2,1,2,4,2,1,1,1,3,3,2,1,2,1,3,1,2,2]
